NAME : rat195.2323.tour
COMMENT : Length = 2323
COMMENT : Found by LKH [Keld Helsgaun]
TYPE : TOUR
DIMENSION : 195
TOUR_SECTION
1
2
3
4
5
6
7
8
9
10
11
12
13
26
25
24
23
22
35
36
37
38
39
52
51
50
49
48
47
46
45
59
60
61
62
63
64
65
78
77
76
75
74
73
72
85
86
87
88
89
90
91
104
103
102
101
100
99
98
111
112
113
114
115
116
117
130
143
142
129
128
127
126
125
124
123
135
136
137
138
139
140
141
154
155
156
169
168
167
180
181
182
195
194
193
191
192
179
178
177
176
190
189
188
187
186
185
184
183
171
170
157
158
144
145
146
160
159
172
173
174
175
161
162
163
164
165
166
153
152
151
150
149
148
147
134
133
132
131
118
119
120
121
122
110
109
108
107
106
105
92
93
94
95
96
97
84
83
82
81
80
79
66
67
68
69
70
71
58
57
56
55
54
53
40
41
42
43
44
30
31
32
33
34
21
20
19
18
17
16
29
28
27
14
15
-1
EOF
